c description: Graph 4-Colorability of graph: 
c generator: CNFgen (0.9.0)
c copyright: (C) 2012-2020 Massimo Lauria <massimo.lauria@uniroma1.it>
c url: https://massimolauria.net/cnfgen
c
p cnf 120 450
1 2 3 4 0
-1 -2 0
-1 -3 0
-1 -4 0
-2 -3 0
-2 -4 0
-3 -4 0
5 6 7 8 0
-5 -6 0
-5 -7 0
-5 -8 0
-6 -7 0
-6 -8 0
-7 -8 0
9 10 11 12 0
-9 -10 0
-9 -11 0
-9 -12 0
-10 -11 0
-10 -12 0
-11 -12 0
13 14 15 16 0
-13 -14 0
-13 -15 0
-13 -16 0
-14 -15 0
-14 -16 0
-15 -16 0
17 18 19 20 0
-17 -18 0
-17 -19 0
-17 -20 0
-18 -19 0
-18 -20 0
-19 -20 0
21 22 23 24 0
-21 -22 0
-21 -23 0
-21 -24 0
-22 -23 0
-22 -24 0
-23 -24 0
25 26 27 28 0
-25 -26 0
-25 -27 0
-25 -28 0
-26 -27 0
-26 -28 0
-27 -28 0
29 30 31 32 0
-29 -30 0
-29 -31 0
-29 -32 0
-30 -31 0
-30 -32 0
-31 -32 0
33 34 35 36 0
-33 -34 0
-33 -35 0
-33 -36 0
-34 -35 0
-34 -36 0
-35 -36 0
37 38 39 40 0
-37 -38 0
-37 -39 0
-37 -40 0
-38 -39 0
-38 -40 0
-39 -40 0
41 42 43 44 0
-41 -42 0
-41 -43 0
-41 -44 0
-42 -43 0
-42 -44 0
-43 -44 0
45 46 47 48 0
-45 -46 0
-45 -47 0
-45 -48 0
-46 -47 0
-46 -48 0
-47 -48 0
49 50 51 52 0
-49 -50 0
-49 -51 0
-49 -52 0
-50 -51 0
-50 -52 0
-51 -52 0
53 54 55 56 0
-53 -54 0
-53 -55 0
-53 -56 0
-54 -55 0
-54 -56 0
-55 -56 0
57 58 59 60 0
-57 -58 0
-57 -59 0
-57 -60 0
-58 -59 0
-58 -60 0
-59 -60 0
61 62 63 64 0
-61 -62 0
-61 -63 0
-61 -64 0
-62 -63 0
-62 -64 0
-63 -64 0
65 66 67 68 0
-65 -66 0
-65 -67 0
-65 -68 0
-66 -67 0
-66 -68 0
-67 -68 0
69 70 71 72 0
-69 -70 0
-69 -71 0
-69 -72 0
-70 -71 0
-70 -72 0
-71 -72 0
73 74 75 76 0
-73 -74 0
-73 -75 0
-73 -76 0
-74 -75 0
-74 -76 0
-75 -76 0
77 78 79 80 0
-77 -78 0
-77 -79 0
-77 -80 0
-78 -79 0
-78 -80 0
-79 -80 0
81 82 83 84 0
-81 -82 0
-81 -83 0
-81 -84 0
-82 -83 0
-82 -84 0
-83 -84 0
85 86 87 88 0
-85 -86 0
-85 -87 0
-85 -88 0
-86 -87 0
-86 -88 0
-87 -88 0
89 90 91 92 0
-89 -90 0
-89 -91 0
-89 -92 0
-90 -91 0
-90 -92 0
-91 -92 0
93 94 95 96 0
-93 -94 0
-93 -95 0
-93 -96 0
-94 -95 0
-94 -96 0
-95 -96 0
97 98 99 100 0
-97 -98 0
-97 -99 0
-97 -100 0
-98 -99 0
-98 -100 0
-99 -100 0
101 102 103 104 0
-101 -102 0
-101 -103 0
-101 -104 0
-102 -103 0
-102 -104 0
-103 -104 0
105 106 107 108 0
-105 -106 0
-105 -107 0
-105 -108 0
-106 -107 0
-106 -108 0
-107 -108 0
109 110 111 112 0
-109 -110 0
-109 -111 0
-109 -112 0
-110 -111 0
-110 -112 0
-111 -112 0
113 114 115 116 0
-113 -114 0
-113 -115 0
-113 -116 0
-114 -115 0
-114 -116 0
-115 -116 0
117 118 119 120 0
-117 -118 0
-117 -119 0
-117 -120 0
-118 -119 0
-118 -120 0
-119 -120 0
-1 -49 0
-2 -50 0
-3 -51 0
-4 -52 0
-1 -77 0
-2 -78 0
-3 -79 0
-4 -80 0
-1 -85 0
-2 -86 0
-3 -87 0
-4 -88 0
-1 -89 0
-2 -90 0
-3 -91 0
-4 -92 0
-1 -101 0
-2 -102 0
-3 -103 0
-4 -104 0
-1 -113 0
-2 -114 0
-3 -115 0
-4 -116 0
-5 -9 0
-6 -10 0
-7 -11 0
-8 -12 0
-5 -25 0
-6 -26 0
-7 -27 0
-8 -28 0
-5 -57 0
-6 -58 0
-7 -59 0
-8 -60 0
-5 -65 0
-6 -66 0
-7 -67 0
-8 -68 0
-5 -81 0
-6 -82 0
-7 -83 0
-8 -84 0
-9 -21 0
-10 -22 0
-11 -23 0
-12 -24 0
-9 -45 0
-10 -46 0
-11 -47 0
-12 -48 0
-9 -69 0
-10 -70 0
-11 -71 0
-12 -72 0
-9 -101 0
-10 -102 0
-11 -103 0
-12 -104 0
-9 -113 0
-10 -114 0
-11 -115 0
-12 -116 0
-13 -49 0
-14 -50 0
-15 -51 0
-16 -52 0
-13 -101 0
-14 -102 0
-15 -103 0
-16 -104 0
-17 -45 0
-18 -46 0
-19 -47 0
-20 -48 0
-17 -85 0
-18 -86 0
-19 -87 0
-20 -88 0
-17 -101 0
-18 -102 0
-19 -103 0
-20 -104 0
-21 -73 0
-22 -74 0
-23 -75 0
-24 -76 0
-21 -105 0
-22 -106 0
-23 -107 0
-24 -108 0
-25 -69 0
-26 -70 0
-27 -71 0
-28 -72 0
-29 -49 0
-30 -50 0
-31 -51 0
-32 -52 0
-29 -73 0
-30 -74 0
-31 -75 0
-32 -76 0
-29 -81 0
-30 -82 0
-31 -83 0
-32 -84 0
-33 -57 0
-34 -58 0
-35 -59 0
-36 -60 0
-33 -77 0
-34 -78 0
-35 -79 0
-36 -80 0
-37 -41 0
-38 -42 0
-39 -43 0
-40 -44 0
-37 -45 0
-38 -46 0
-39 -47 0
-40 -48 0
-37 -65 0
-38 -66 0
-39 -67 0
-40 -68 0
-37 -73 0
-38 -74 0
-39 -75 0
-40 -76 0
-41 -53 0
-42 -54 0
-43 -55 0
-44 -56 0
-41 -89 0
-42 -90 0
-43 -91 0
-44 -92 0
-41 -105 0
-42 -106 0
-43 -107 0
-44 -108 0
-49 -117 0
-50 -118 0
-51 -119 0
-52 -120 0
-53 -101 0
-54 -102 0
-55 -103 0
-56 -104 0
-57 -65 0
-58 -66 0
-59 -67 0
-60 -68 0
-57 -77 0
-58 -78 0
-59 -79 0
-60 -80 0
-57 -89 0
-58 -90 0
-59 -91 0
-60 -92 0
-57 -97 0
-58 -98 0
-59 -99 0
-60 -100 0
-57 -117 0
-58 -118 0
-59 -119 0
-60 -120 0
-61 -81 0
-62 -82 0
-63 -83 0
-64 -84 0
-61 -93 0
-62 -94 0
-63 -95 0
-64 -96 0
-61 -97 0
-62 -98 0
-63 -99 0
-64 -100 0
-61 -113 0
-62 -114 0
-63 -115 0
-64 -116 0
-65 -89 0
-66 -90 0
-67 -91 0
-68 -92 0
-69 -85 0
-70 -86 0
-71 -87 0
-72 -88 0
-69 -105 0
-70 -106 0
-71 -107 0
-72 -108 0
-73 -77 0
-74 -78 0
-75 -79 0
-76 -80 0
-73 -101 0
-74 -102 0
-75 -103 0
-76 -104 0
-77 -97 0
-78 -98 0
-79 -99 0
-80 -100 0
-77 -117 0
-78 -118 0
-79 -119 0
-80 -120 0
-81 -85 0
-82 -86 0
-83 -87 0
-84 -88 0
-81 -101 0
-82 -102 0
-83 -103 0
-84 -104 0
-85 -105 0
-86 -106 0
-87 -107 0
-88 -108 0
-85 -113 0
-86 -114 0
-87 -115 0
-88 -116 0
-93 -117 0
-94 -118 0
-95 -119 0
-96 -120 0
-113 -117 0
-114 -118 0
-115 -119 0
-116 -120 0